//Função objetivo
min: 15*a+15*b+4*c+4*d+8*e+8*f+18*g+18*h+17*i+17*j
+8*k+8*l+61*m+61*n+4*o+4*p+4*q+4*r+17*s+17*t+5*u+5*v;

//Restriçoes
X-2 <= a;
-X+2 <= a;
Y-8 <= b;
-Y+8 <= b;
W-2 <= c;
-W+2 <= c;
Z-8 <= d;
-Z+8 <= d;
X-10 <= e;
-X+10 <= e;
Y-7 <= f;
-Y+7 <= f;
W-10 <= g;
-W+10 <= g;
Z-7 <= h;
-Z+7 <= h;
X-1 <= i;
-X+1 <= i;
Y-3 <= j;
-Y+3 <= j;
W-1 <= k;
-W+1 <= k;
Z-3 <= l;
-Z+3 <= l;
X-6 <= m;
-X+6 <= m;
Y-4 <= n;
-Y+4 <= n;
W-6 <= o;
-W+6 <= o;
Z-4 <= p;
-Z+4 <= p;
X-1 <= q;
-X+1 <= q;
Y-7 <= r;
-Y+7 <= r;
W-1 <= s;
-W+1 <= s;
Z-7 <= t;
-Z+7 <= t;
X-W <= u;
-X+W <= u;
Y-Z <= v;
-Y+Z <= v;